StudentsNr = 5;
InstructorsNr = 8;
DaysNr = 1;
SlotsPerDay = 8;
AvailabilitySlotsLenght = 2;
RoomNr = 2;
ProgrammNr = 1;
DegreeNr = 2;
RolesNr = 3;
CoursesNr = 5;
InstructorsProgramm = [{1}, {1}, {1}, {1}, {1}, {1}, {1}, {1}];
InstructorRolesPerProgramm = [|{3, 4, 8}, {1}, {2, 3, 4, 7}|];
InstructorsAvailability = [|1, 0, 1, 1, |0, 1, 1, 1, |1, 1, 1, 1, |1, 1, 1, 1, |0, 1, 1, 1, |1, 1, 1, 1, |0, 0, 0, 1, |1, 1, 1, 1|];
StudentsProgramm = [1, 1, 1, 1, 1];
StudentsDegree = [1, 2, 2, 1, 2];
StudentsSupervisorId = [6, 4, 6, 5, 5];
StudentsCourseIds = [{2}, {5}, {1}, {5}, {3}];
StudentsAvailability = [|0, 1, 1, 1, |0, 1, 1, 1, |0, 0, 1, 1, |0, 0, 1, 0, |1, 1, 1, 0|];
TheoryticalMinCard = [1, 0, 0, 0, 0];
CoursesInstructorIds = [{1, 3, 4, 6, 8}, {1, 5, 7, 8}, {1, 3, 5, 7}, {5, 7, 8}, {2, 3, 4, 5, 6, 7}];
RolesDemands = [0, 0, 3];
RolesContinuity = [];
ExamLen = [1, 2, 2, 1, 2];
LunchTsMinLen = 0;
LunchStarts = [4..5];
SupervisorAvailable = 5;
OptimalLunchLenght = [2, 0];
OptimalStartTs = [1, 2];
OptimalFinishTs = [1, 7];
MinimizeRooms = 300;
RolesSoftContinuity = [|1, 2, 3|1, 2, 2|];
SameDegreeInRoom = 10;
Mergeability = 1;
